% ============================================================================
% INSTANCIA FACTIBLE AJUSTADA FINAL
% ============================================================================

num_buses = 8;
num_stations = 15;

Cmax = 1000;
Cmin = 200;
alpha = 500;

mu = 50;
SM = 10;
psi = 10;
beta = 100;
M = 100000;

max_stops = 10;
num_stops = [10, 8, 6, 5, 9, 8, 8, 5];

% Estaciones separadas (evita conflictos)
st_bi = array2d(1..8, 1..10, [
  1,2,3,4,5,6,7,8,9,10,
  1,3,5,7,9,11,13,15,15,15,
  1,4,6,8,10,12,12,12,12,12,
  1,5,7,9,11,11,11,11,11,11,
  1,6,8,10,12,14,2,4,6,6,
  1,7,9,11,13,15,3,5,5,5,
  1,8,10,12,14,2,4,6,6,6,
  1,9,11,13,15,15,15,15,15,15
]);

% Consumo cuidadosamente balanceado
D = array2d(1..8, 1..10, [
  0,90,90,90,90,90,90,90,90,90,      % 810
  0,90,90,90,90,90,90,90,0,0,        % 630
  0,90,90,90,90,90,0,0,0,0,          % 450
  0,90,90,90,90,0,0,0,0,0,           % 360
  0,90,90,90,90,90,90,90,90,0,       % 720
  0,90,90,90,90,90,90,90,0,0,        % 630
  0,90,90,90,90,90,90,90,0,0,        % 630
  0,90,90,90,90,0,0,0,0,0            % 360
]);

% Tiempos constantes (simplifica coherencia)
T = array2d(1..8, 1..10, [
  0,120,120,120,120,120,120,120,120,120,
  0,120,120,120,120,120,120,120,0,0,
  0,120,120,120,120,120,0,0,0,0,
  0,120,120,120,120,0,0,0,0,0,
  0,120,120,120,120,120,120,120,120,0,
  0,120,120,120,120,120,120,120,0,0,
  0,120,120,120,120,120,120,120,0,0,
  0,120,120,120,120,0,0,0,0,0
]);

% CLAVE: slack global suficiente para UNA recarga
tau_bi = array2d(1..8, 1..10, [
  4200,4350,4500,4650,4800,4950,5100,5250,5400,5550,
  4200,4350,4500,4650,4800,4950,5100,5250,5250,5250,
  4200,4350,4500,4650,4800,4950,4950,4950,4950,4950,
  4200,4350,4500,4650,4800,4800,4800,4800,4800,4800,
  4200,4350,4500,4650,4800,4950,5100,5250,5400,5400,
  4200,4350,4500,4650,4800,4950,5100,5250,5250,5250,
  4200,4350,4500,4650,4800,4950,5100,5250,5250,5250,
  4200,4350,4500,4650,4800,4800,4800,4800,4800,4800
]);